ANIMSTEPS    6
CRYSTAL
PRIMVEC
    2.462790740    0.000000000    0.000000000
   -1.231395370    2.132839345    0.000000000
    0.000000000    0.000000000    7.388372219
PRIMCOORD    1
      2   1
   C      0.00000   0.00000   0.00000  -0.00153  -0.00945  -0.07006
   C      0.00000   1.42189   0.00000  -0.00153  -0.00945  -0.07006
PRIMCOORD    2
      2   1
   C      0.00000   0.00000   0.00000  -0.06519   0.02731  -0.00226
   C      0.00000   1.42189   0.00000  -0.06519   0.02731  -0.00226
PRIMCOORD    3
      2   1
   C      0.00000   0.00000   0.00000  -0.02736  -0.06454   0.00930
   C      0.00000   1.42189   0.00000  -0.02736  -0.06454   0.00930
PRIMCOORD    4
      2   1
   C      0.00000   0.00000   0.00000   0.00000  -0.00000  -0.07071
   C      0.00000   1.42189   0.00000  -0.00000  -0.00000   0.07071
PRIMCOORD    5
      2   1
   C      0.00000   0.00000   0.00000   0.06281   0.03249   0.00000
   C      0.00000   1.42189   0.00000  -0.06281  -0.03249   0.00000
PRIMCOORD    6
      2   1
   C      0.00000   0.00000   0.00000  -0.03249   0.06281  -0.00000
   C      0.00000   1.42189   0.00000   0.03249  -0.06281   0.00000
